
Log started (V12.8.0.0) Thu Aug 30 12:36:23 2018

New value for time limit in seconds: 500
CPXPARAM_TimeLimit                               500
CPXPARAM_Emphasis_Numerical                      1
CPXPARAM_Parallel                                -1
CPXPARAM_Benders_Strategy                        3
CPXPARAM_MIP_Tolerances_Integrality              9.9999999999999995e-08
CPXPARAM_MIP_Pool_AbsGap                         0
Tried aggregator 4 times.
MIP Presolve eliminated 8254 rows and 3782 columns.
Aggregator did 1223 substitutions.
Reduced MIP has 2399 rows, 2463 columns, and 8920 nonzeros.
Reduced MIP has 25 binaries, 0 generals, 0 SOSs, and 0 indicators.
Presolve time = 0.01 sec. (15.09 ticks)
Found incumbent of value -6.000000 after 0.02 sec. (23.78 ticks)
Tried aggregator 1 time.
Reduced MIP has 2399 rows, 2463 columns, and 8920 nonzeros.
Reduced MIP has 25 binaries, 0 generals, 0 SOSs, and 0 indicators.
Presolve time = 0.00 sec. (2.46 ticks)

        Nodes                                         Cuts/
   Node  Left     Objective  IInf  Best Integer    Best Bound    ItCnt     Gap

      0     0        0.0000                       Benders: 10        0         
      0     0        0.0000                        Benders: 2        3         
      0     0        0.0000                        Benders: 1        4         
      0     0        0.0000                        Benders: 1        5         
      0     0        0.0000                            0.0000        6         
Tried aggregator 1 time.
MIP Presolve modified 156 coefficients.
Reduced MIP has 15 rows, 35 columns, and 117 nonzeros.
Reduced MIP has 25 binaries, 0 generals, 0 SOSs, and 0 indicators.
Presolve time = 0.00 sec. (0.03 ticks)
Probing time = 0.00 sec. (0.01 ticks)
Tried aggregator 1 time.
Reduced MIP has 15 rows, 35 columns, and 117 nonzeros.
Reduced MIP has 25 binaries, 0 generals, 0 SOSs, and 0 indicators.
Presolve time = 0.00 sec. (0.03 ticks)
Probing time = 0.00 sec. (0.01 ticks)
MIP emphasis: balance optimality and feasibility.
MIP search method: dynamic search.
Parallel mode: opportunistic, using up to 8 threads.
Root relaxation solution time = 0.00 sec. (0.04 ticks)
*     0+    0                           -6.0000       -0.0000           100.00%
      0     0       -0.2000     5       -6.0000       -0.0000       32  100.00%
      0     0       -0.6000     5       -6.0000      Fract: 3       35   90.00%
      0     0       -0.8000     5       -6.0000      Fract: 3       45   86.67%
*     0+    0                           -5.5000       -0.8000            85.45%

Repeating presolve.
Tried aggregator 1 time.
Reduced MIP has 15 rows, 35 columns, and 117 nonzeros.
Reduced MIP has 25 binaries, 0 generals, 0 SOSs, and 0 indicators.
Presolve time = 0.00 sec. (0.03 ticks)
Probing time = 0.00 sec. (0.01 ticks)
Tried aggregator 1 time.
Reduced MIP has 15 rows, 35 columns, and 117 nonzeros.
Reduced MIP has 25 binaries, 0 generals, 0 SOSs, and 0 indicators.
Presolve time = 0.00 sec. (0.03 ticks)
Represolve time = 0.00 sec. (0.48 ticks)
Probing time = 0.00 sec. (0.01 ticks)
MIP emphasis: balance optimality and feasibility.
MIP search method: dynamic search.
Parallel mode: opportunistic, using up to 8 threads.
Root relaxation solution time = 0.00 sec. (0.15 ticks)
*     0+    0                           -5.5000       -0.8000            85.45%
      0     0       -1.2000     6       -5.5000       -1.2000       92   78.18%
      0     0       -1.2000     4       -5.5000       Cuts: 5       99   78.18%
      0     0       -1.2000     4       -5.5000      Fract: 1      100   78.18%
      0     5        cutoff             -5.5000      Cuts: 40      166   76.41%
Elapsed time = 0.27 sec. (196.15 ticks, tree = 0.01 MB, solutions = 1)
*    54    11      integral     0       -5.4000       -3.0000      414   44.44%

Benders cuts applied:  77
Lift and project cuts applied:  1
Gomory fractional cuts applied:  8

Root node processing (before b&c):
  Real time             =    0.23 sec. (195.85 ticks)
Parallel b&c, 8 threads:
  Real time             =    0.09 sec. (33.86 ticks)
  Sync time (average)   =    0.02 sec.
  Wait time (average)   =    0.00 sec.
                          ------------
Total (root+branch&cut) =    0.32 sec. (229.72 ticks)

Solution pool: 3 solutions saved.

MIP - Integer optimal solution:  Objective = -5.4000000000e+00
Solution time =    0.33 sec.  Iterations = 500  Nodes = 92 (1)
Deterministic time = 230.30 ticks  (708.16 ticks/sec)


Solution pool written to file 'ngp_a2_b0_n2.sol'.
Current MIP best bound = -5.4000000000e+00 (gap = -0, 0.00%)
